15,4	0,0	11,5	10,2	0,0	0,0	0,0	0,0	0,0	5,6
7,5	9,3	0,0	19,0	9,3	0,0	0,0	12,4	0,0	0,0
0,0	0,0	13,5	0,0	6,9	18,1	0,0	0,0	14,3	0,0
12,6	0,0	6,4	0,0	0,0	0,0	16,9	0,0	0,0	0,0
0,0	14,9	0,0	8,0	7,0	0,0	0,0	8,3	0,0	0,0
0,0	17,8	12,6	0,0	16,1	11,4	0,0	0,0	14,3	0,0
0,0	17,4	0,0	13,9	0,0	0,0	11,8	0,0	0,0	5,3
12,4	0,0	12,4	0,0	0,0	0,0	0,0	0,0	0,0	16,4
0,0	16,6	0,0	15,2	15,9	0,0	0,0	9,0	0,0	0,0
0,0	0,0	8,6	0,0	0,0	19,5	17,4	0,0	0,0	13,3
0,0	8,8	0,0	0,0	8,8	0,0	11,9	0,0	11,6	13,4
9,8	0,0	15,8	0,0	17,0	0,0	12,3	10,1	16,7	0,0
0,0	17,4	0,0	0,0	0,0	12,9	0,0	11,4	7,0	17,6
19,7	8,9	13,7	0,0	0,0	8,9	0,0	6,7	14,0	0,0
12,9	0,0	8,4	0,0	12,8	17,8	12,4	9,7	0,0	0,0
0,0	6,7	0,0	9,8	0,0	17,0	0,0	8,7	0,0	0,0
5,8	0,0	8,7	7,7	7,0	0,0	0,0	19,6	0,0	0,0
0,0	0,0	15,4	0,0	0,0	14,6	15,4	0,0	10,8	13,9
19,1	0,0	0,0	11,0	8,4	14,1	16,1	8,5	0,0	13,6
0,0	7,8	0,0	17,9	0,0	0,0	12,2	0,0	8,7	8,6
									
2,6	4,4	5,0	3,2	3,8	4,0	4,6	4,1	4,6	4,5
